numServers = 10;

slots = [10, 9, 8, 7, 6, 6, 6, 6, 6, 6];
link_bandwidth = [1000, 1000, 500, 400, 100, 100, 100, 100, 100, 100];
link_latency = [30, 50, 10, 50, 50, 50, 50, 50, 50, 50];

maxSlots = 10;

chainLen = 11;
chain = [2, 3, 3, 8, 4, 3, 1, 4, 2, 3, 1];

numVnfds = 8;
vnf_weights = [3, 2, 2, 1, 1, 1, 1, 1];
vnf_bandwidth = [100, 80, 60, 20, 20, 20, 20, 20];
vnf_latency = [100, 80, 60, 20, 20, 20, 20, 20];

p_min = 200;
p_slot = 100;

